feasible solution found by trivial heuristic after 0.6 seconds, objective value 0.000000e+00
presolving:
(round 1, fast)       5612 del vars, 1 del conss, 0 add conss, 0 chg bounds, 0 chg sides, 0 chg coeffs, 0 upgd conss, 0 impls, 8589 clqs
   (0.9s) running MILP presolver
   (4.2s) MILP presolver (2 rounds): 0 aggregations, 110186 fixings, 0 bound changes
(round 2, medium)     115798 del vars, 14546 del conss, 8589 add conss, 0 chg bounds, 0 chg sides, 0 chg coeffs, 0 upgd conss, 0 impls, 5611 clqs
(round 3, exhaustive) 115798 del vars, 14802 del conss, 8589 add conss, 0 chg bounds, 0 chg sides, 0 chg coeffs, 0 upgd conss, 0 impls, 8333 clqs
(round 4, exhaustive) 115798 del vars, 14802 del conss, 8589 add conss, 0 chg bounds, 0 chg sides, 0 chg coeffs, 8333 upgd conss, 0 impls, 8333 clqs
   (4.4s) probing: 51/132 (38.6%) - 0 fixings, 0 aggregations, 0 implications, 0 bound changes
   (4.4s) probing aborted: 50/50 successive totally useless probings
   (4.5s) symmetry computation started: requiring (bin +, int -, cont +), (fixed: bin -, int +, cont -)
   (4.5s) no symmetry present
presolving (5 rounds: 5 fast, 4 medium, 3 exhaustive):
 115798 deleted vars, 14802 deleted constraints, 8589 added constraints, 0 tightened bounds, 0 added holes, 0 changed sides, 0 changed coefficients
 0 implications, 8333 cliques
presolved problem has 132 variables (132 bin, 0 int, 0 impl, 0 cont) and 8333 constraints
   8333 constraints of type <setppc>
Presolving Time: 4.14

 time | node  | left  |LP iter|LP it/n|mem/heur|mdpt |vars |cons |rows |cuts |sepa|confs|strbr|  dualbound   | primalbound  |  gap   | compl. 
t 4.5s|     1 |     0 |     0 |     - | trivial|   0 | 132 |8333 |   0 |   0 |  0 |   0 |   0 | 1.361346e+06 | 1.347874e+06 |   1.00%| unknown
p 4.5s|     1 |     0 |     0 |     - |  clique|   0 | 132 |8333 |8333 |   0 |  0 |   0 |   0 | 1.361346e+06 | 1.349220e+06 |   0.90%| unknown
  4.9s|     1 |     0 |  1118 |     - |   341M |   0 | 132 |8333 |8333 |   0 |  0 |   0 |   0 | 1.350553e+06 | 1.349220e+06 |   0.10%| unknown
  5.1s|     1 |     0 |  1293 |     - |   342M |   0 | 132 |8333 |8334 |   1 |  1 |   0 |   0 | 1.350540e+06 | 1.349220e+06 |   0.10%| unknown
  5.2s|     1 |     0 |  1438 |     - |   344M |   0 | 132 |8333 |8335 |   2 |  2 |   0 |   0 | 1.350534e+06 | 1.349220e+06 |   0.10%| unknown
  5.3s|     1 |     0 |  1563 |     - |   346M |   0 | 132 |8333 |8336 |   3 |  3 |   0 |   0 | 1.350530e+06 | 1.349220e+06 |   0.10%| unknown
  5.4s|     1 |     0 |  1695 |     - |   348M |   0 | 132 |8333 |8337 |   4 |  4 |   0 |   0 | 1.350528e+06 | 1.349220e+06 |   0.10%| unknown
  5.5s|     1 |     0 |  1848 |     - |   349M |   0 | 132 |8333 |8338 |   5 |  5 |   0 |   0 | 1.350525e+06 | 1.349220e+06 |   0.10%| unknown
  5.6s|     1 |     0 |  2012 |     - |   352M |   0 | 132 |8333 |8340 |   7 |  6 |   0 |   0 | 1.350522e+06 | 1.349220e+06 |   0.10%| unknown
  5.7s|     1 |     0 |  2200 |     - |   354M |   0 | 132 |8333 |8341 |   8 |  7 |   0 |   0 | 1.350521e+06 | 1.349220e+06 |   0.10%| unknown
  5.9s|     1 |     0 |  2414 |     - |   355M |   0 | 132 |8333 |8342 |   9 |  8 |   0 |   0 | 1.350519e+06 | 1.349220e+06 |   0.10%| unknown
  6.0s|     1 |     0 |  2581 |     - |   357M |   0 | 132 |8333 |8344 |  11 |  9 |   0 |   0 | 1.350518e+06 | 1.349220e+06 |   0.10%| unknown
  6.1s|     1 |     0 |  2758 |     - |   358M |   0 | 132 |8333 |8345 |  12 | 10 |   0 |   0 | 1.350516e+06 | 1.349220e+06 |   0.10%| unknown
  6.2s|     1 |     0 |  2896 |     - |   359M |   0 | 132 |8333 |8347 |  14 | 11 |   0 |   0 | 1.350515e+06 | 1.349220e+06 |   0.10%| unknown
  6.3s|     1 |     0 |  2962 |     - |   359M |   0 | 132 |8333 |8348 |  15 | 12 |   0 |   0 | 1.350514e+06 | 1.349220e+06 |   0.10%| unknown
 time | node  | left  |LP iter|LP it/n|mem/heur|mdpt |vars |cons |rows |cuts |sepa|confs|strbr|  dualbound   | primalbound  |  gap   | compl. 
  6.4s|     1 |     0 |  3065 |     - |   360M |   0 | 132 |8333 |8350 |  17 | 13 |   0 |   0 | 1.350513e+06 | 1.349220e+06 |   0.10%| unknown
d 6.6s|     1 |     0 |  3787 |     - |farkasdi|   0 | 132 |8333 |8350 |   0 | 15 |   0 |   0 | 1.350513e+06 | 1.349742e+06 |   0.06%| unknown
  6.7s|     1 |     0 |  3787 |     - |   361M |   0 | 132 |8333 |8350 |  17 | 15 |   0 |   0 | 1.350513e+06 | 1.349742e+06 |   0.06%| unknown
 12.4s|     1 |     2 |  3787 |     - |   361M |   0 | 132 |8333 |8350 |  17 | 17 |   0 |  21 | 1.350473e+06 | 1.349742e+06 |   0.05%| unknown
*14.8s|     3 |     2 |  4499 | 741.5 |strongbr|   2 | 132 |8333 |8344 |  17 |  1 |   0 |  42 | 1.350473e+06 | 1.349821e+06 |   0.05%| unknown
*27.7s|     8 |     1 |  7552 | 648.0 |    LP  |   3 | 132 |8284 |8344 |  17 |  4 |  37 | 162 | 1.350390e+06 | 1.349842e+06 |   0.04%|  54.67%
*45.7s|    13 |     0 | 10424 | 617.3 |strongbr|   5 | 132 |7074 |8344 |  17 |  2 |  89 | 310 | 1.350126e+06 | 1.349906e+06 |   0.02%|  98.83%

SCIP Status        : problem is solved [optimal solution found]
Solving Time (sec) : 45.98
Solving Nodes      : 13
Primal Bound       : +1.34990577206519e+06 (120 solutions)
Dual Bound         : +1.34990577206519e+06
Gap                : 0.00 %
Solve Status: optimal
Solve Time: 46.02 seconds
